NAME          SET_PARTITION
ROWS
 N  COST
 E  ELEM1
 E  ELEM2
 E  ELEM3
 E  ELEM4
 E  ELEM5
 E  ELEM6
 E  ELEM7
 E  ELEM8
 E  ELEM9
 E  ELEM10
 E  ELEM11
 E  ELEM12
 E  ELEM13
 E  ELEM14
 E  ELEM15
 E  ELEM16
 E  ELEM17
 E  ELEM18
 E  ELEM19
 E  ELEM20
 E  ELEM21
 E  ELEM22
 E  ELEM23
 E  ELEM24
 E  ELEM25
COLUMNS
    X1       COST      86         ELEM3     1          ELEM8     1          
    X1       ELEM15    1          ELEM21    1          
    X1       ELEM25    1          
    X2       COST      16         ELEM6     1          ELEM11    1          
    X2       ELEM12    1          ELEM13    1          
    X3       COST      4          ELEM1     1          ELEM2     1          
    X3       ELEM7     1          ELEM9     1          
    X4       COST      83         ELEM20    1          ELEM21    1          
    X4       ELEM23    1          
    X5       COST      62         ELEM4     1          ELEM9     1          
    X5       ELEM14    1          ELEM17    1          
    X5       ELEM18    1          ELEM25    1          
    X6       COST      11         ELEM1     1          ELEM2     1          
    X6       ELEM3     1          ELEM5     1          
    X6       ELEM7     1          ELEM8     1          
    X6       ELEM10    1          ELEM15    1          
    X6       ELEM16    1          ELEM19    1          
    X6       ELEM22    1          ELEM24    1          
    X7       COST      94         ELEM1     1          ELEM4     1          
    X7       ELEM5     1          ELEM6     1          
    X7       ELEM16    1          ELEM17    1          
    X7       ELEM18    1          ELEM19    1          
    X7       ELEM23    1          ELEM24    1          
    X8       COST      89         ELEM2     1          ELEM7     1          
    X8       ELEM9     1          ELEM10    1          
    X8       ELEM11    1          ELEM12    1          
    X8       ELEM13    1          ELEM14    1          
    X8       ELEM20    1          ELEM22    1          
RHS
    RHS       ELEM1     1       
    RHS       ELEM2     1       
    RHS       ELEM3     1       
    RHS       ELEM4     1       
    RHS       ELEM5     1       
    RHS       ELEM6     1       
    RHS       ELEM7     1       
    RHS       ELEM8     1       
    RHS       ELEM9     1       
    RHS       ELEM10    1       
    RHS       ELEM11    1       
    RHS       ELEM12    1       
    RHS       ELEM13    1       
    RHS       ELEM14    1       
    RHS       ELEM15    1       
    RHS       ELEM16    1       
    RHS       ELEM17    1       
    RHS       ELEM18    1       
    RHS       ELEM19    1       
    RHS       ELEM20    1       
    RHS       ELEM21    1       
    RHS       ELEM22    1       
    RHS       ELEM23    1       
    RHS       ELEM24    1       
    RHS       ELEM25    1       
BOUNDS
 BV BND1      X1
 BV BND1      X2
 BV BND1      X3
 BV BND1      X4
 BV BND1      X5
 BV BND1      X6
 BV BND1      X7
 BV BND1      X8
ENDATA
